c instance by G2
c solution = 0101111
c Known solution cost is 391 
p cnf 7 30
w 92 89 55 53 9 45 48
1 4 -3 0
-6 5 -4 0
-5 -4 -1 0
6 2 -4 0
-7 4 -3 0
-2 7 6 0
4 -5 -6 0
5 -2 -3 0
1 6 7 0
2 1 6 0
7 -3 -4 0
-5 1 6 0
-7 2 -6 0
-2 5 -7 0
-1 2 -6 0
-6 1 7 0
5 7 -2 0
-5 -4 6 0
-7 -3 6 0
-3 -5 1 0
7 4 -2 0
-3 -1 -7 0
-1 4 5 0
-3 -7 4 0
2 3 -7 0
7 2 6 0
5 6 7 0
5 -6 -7 0
-2 7 1 0
6 -7 5 0
